x_1
x_2
x_3
x_4
x_5
x_6
x_7
x_8
x_9
x_10
x_3 x_2
x_4 x_2
x_4 x_3
x_5 x_4
x_6 x_1
x_6 x_3
x_6 x_4
x_6 x_5
x_7 x_2
x_7 x_3
x_8 x_1
x_8 x_2
x_8 x_3
x_8 x_4
x_8 x_5
x_8 x_7
x_9 x_1
x_9 x_2
x_9 x_4
x_9 x_5
x_10 x_1
x_10 x_6
x_10 x_7
